c Reduced graph for p20_0 generated by Cyril Grelier
p edge 37 142
e 1 2
e 1 3
e 1 6
e 1 11
e 1 13
e 1 16
e 1 20
e 1 23
e 1 30
e 2 5
e 2 8
e 2 10
e 2 15
e 2 16
e 2 22
e 2 23
e 2 30
e 3 4
e 3 5
e 3 6
e 3 11
e 3 13
e 3 20
e 3 24
e 3 25
e 4 5
e 4 7
e 4 9
e 4 12
e 4 14
e 4 21
e 4 24
e 4 25
e 5 8
e 5 10
e 5 15
e 5 22
e 5 24
e 5 25
e 6 7
e 6 8
e 6 11
e 6 13
e 6 17
e 6 20
e 6 26
e 7 8
e 7 9
e 7 12
e 7 14
e 7 17
e 7 21
e 7 26
e 8 10
e 8 15
e 8 17
e 8 22
e 8 26
e 9 10
e 9 12
e 9 14
e 9 21
e 9 27
e 9 31
e 9 32
e 10 15
e 10 22
e 10 27
e 10 31
e 10 32
e 11 12
e 11 13
e 11 18
e 11 20
e 11 28
e 11 33
e 12 14
e 12 18
e 12 21
e 12 28
e 12 33
e 13 14
e 13 15
e 13 19
e 13 20
e 13 34
e 14 15
e 14 19
e 14 21
e 14 34
e 15 19
e 15 22
e 15 34
e 16 17
e 16 18
e 16 19
e 16 23
e 16 29
e 16 30
e 17 18
e 17 19
e 17 26
e 17 29
e 18 19
e 18 28
e 18 29
e 18 33
e 19 29
e 19 34
e 20 21
e 20 22
e 20 29
e 21 22
e 21 29
e 22 29
e 23 25
e 23 28
e 23 30
e 23 36
e 24 25
e 24 26
e 24 27
e 24 35
e 25 28
e 25 36
e 26 27
e 26 35
e 27 31
e 27 32
e 27 35
e 28 33
e 28 36
e 30 31
e 30 37
e 31 32
e 31 37
e 32 33
e 32 34
e 33 34
e 35 36
e 35 37
e 36 37
